02_FORMAL/tv/RIINA/Domains/MobileOS/EncryptionSystem.tv.smt2
; SPDX-License-Identifier: MPL-2.0
; Copyright (c) 2026 The RIINA Authors.
; Auto-generated from 02_FORMAL/coq/domains/mobile_os/EncryptionSystem.v (22 validations)
; Generated by scripts/generate-full-stack.py
;
; Translation Validation for EncryptionSystem
; Layer 9: Verifies compiler backend preserves formal semantics.
; Each assertion checks source IR ≡ target code for a proven property.

(set-logic QF_LIA)
(set-option :produce-models true)

; IR node representation
(declare-sort IRNode 0)
(declare-sort TargetNode 0)

; strong_encryption: source semantics (matches Coq)
(declare-fun source_strong_encryption () Bool)
(declare-fun target_strong_encryption () Bool)
(assert (= source_strong_encryption target_strong_encryption))

; e2e_encrypted: source semantics (matches Coq)
(declare-fun source_e2e_encrypted () Bool)
(declare-fun target_e2e_encrypted () Bool)
(assert (= source_e2e_encrypted target_e2e_encrypted))

; securely_managed: source semantics (matches Coq)
(declare-fun source_securely_managed () Bool)
(declare-fun target_securely_managed () Bool)
(assert (= source_securely_managed target_securely_managed))

; provides_confidentiality: source semantics (matches Coq)
(declare-fun source_provides_confidentiality () Bool)
(declare-fun target_provides_confidentiality () Bool)
(assert (= source_provides_confidentiality target_provides_confidentiality))

; provides_integrity: source semantics (matches Coq)
(declare-fun source_provides_integrity () Bool)
(declare-fun target_provides_integrity () Bool)
(assert (= source_provides_integrity target_provides_integrity))

; full_e2e_security: source semantics (matches Coq)
(declare-fun source_full_e2e_security () Bool)
(declare-fun target_full_e2e_security () Bool)
(assert (= source_full_e2e_security target_full_e2e_security))

; correct_decryption: source semantics (matches Coq)
(declare-fun source_correct_decryption () Bool)
(declare-fun target_correct_decryption () Bool)
(assert (= source_correct_decryption target_correct_decryption))

; key_bits_sufficient: source semantics (matches Coq)
(declare-fun source_key_bits_sufficient () Bool)
(declare-fun target_key_bits_sufficient () Bool)
(assert (= source_key_bits_sufficient target_key_bits_sufficient))

; is_aes_or_chacha: source semantics (matches Coq)
(declare-fun source_is_aes_or_chacha () Bool)
(declare-fun target_is_aes_or_chacha () Bool)
(assert (= source_is_aes_or_chacha target_is_aes_or_chacha))

; is_strong_key: source semantics (matches Coq)
(declare-fun source_is_strong_key () Bool)
(declare-fun target_is_strong_key () Bool)
(assert (= source_is_strong_key target_is_strong_key))

; encryption_decryption_inverse_prop: source semantics (matches Coq)
(declare-fun source_encryption_decryption_inverse_prop () Bool)
(declare-fun target_encryption_decryption_inverse_prop () Bool)
(assert (= source_encryption_decryption_inverse_prop target_encryption_decryption_inverse_prop))

; key_length_sufficient_prop: source semantics (matches Coq)
(declare-fun source_key_length_sufficient_prop () Bool)
(declare-fun target_key_length_sufficient_prop () Bool)
(assert (= source_key_length_sufficient_prop target_key_length_sufficient_prop))

; iv_never_reused: source semantics (matches Coq)
(declare-fun source_iv_never_reused () Bool)
(declare-fun target_iv_never_reused () Bool)
(assert (= source_iv_never_reused target_iv_never_reused))

; aead_verified: source semantics (matches Coq)
(declare-fun source_aead_verified () Bool)
(declare-fun target_aead_verified () Bool)
(assert (= source_aead_verified target_aead_verified))

; key_derivation_deterministic_prop: source semantics (matches Coq)
(declare-fun source_key_derivation_deterministic_prop () Bool)
(declare-fun target_key_derivation_deterministic_prop () Bool)
(assert (= source_key_derivation_deterministic_prop target_key_derivation_deterministic_prop))

; password_hash_one_way: source semantics (matches Coq)
(declare-fun source_password_hash_one_way () Bool)
(declare-fun target_password_hash_one_way () Bool)
(assert (= source_password_hash_one_way target_password_hash_one_way))

; salt_unique: source semantics (matches Coq)
(declare-fun source_salt_unique () Bool)
(declare-fun target_salt_unique () Bool)
(assert (= source_salt_unique target_salt_unique))

; key_rotation_seamless: source semantics (matches Coq)
(declare-fun source_key_rotation_seamless () Bool)
(declare-fun target_key_rotation_seamless () Bool)
(assert (= source_key_rotation_seamless target_key_rotation_seamless))

; encrypted_data_indistinguishable: source semantics (matches Coq)
(declare-fun source_encrypted_data_indistinguishable () Bool)
(declare-fun target_encrypted_data_indistinguishable () Bool)
(assert (= source_encrypted_data_indistinguishable target_encrypted_data_indistinguishable))

; padding_oracle_prevented: source semantics (matches Coq)
(declare-fun source_padding_oracle_prevented () Bool)
(declare-fun target_padding_oracle_prevented () Bool)
(assert (= source_padding_oracle_prevented target_padding_oracle_prevented))

; timing_attack_prevented: source semantics (matches Coq)
(declare-fun source_timing_attack_prevented () Bool)
(declare-fun target_timing_attack_prevented () Bool)
(assert (= source_timing_attack_prevented target_timing_attack_prevented))

; key_zeroization_complete: source semantics (matches Coq)
(declare-fun source_key_zeroization_complete () Bool)
(declare-fun target_key_zeroization_complete () Bool)
(assert (= source_key_zeroization_complete target_key_zeroization_complete))

; hardware_key_storage_prop: source semantics (matches Coq)
(declare-fun source_hardware_key_storage_prop () Bool)
(declare-fun target_hardware_key_storage_prop () Bool)
(assert (= source_hardware_key_storage_prop target_hardware_key_storage_prop))

; encryption_algorithm_approved: source semantics (matches Coq)
(declare-fun source_encryption_algorithm_approved () Bool)
(declare-fun target_encryption_algorithm_approved () Bool)
(assert (= source_encryption_algorithm_approved target_encryption_algorithm_approved))

; e2e_encryption_verified: translation preserves property (matches Coq: Theorem)
(declare-fun source_e2e_encryption_verified () Bool)
(declare-fun target_e2e_encryption_verified () Bool)
(assert (= source_e2e_encryption_verified target_e2e_encryption_verified))

; private_keys_in_secure_enclave: translation preserves property (matches Coq: Theorem)
(declare-fun source_private_keys_in_secure_enclave () Bool)
(declare-fun target_private_keys_in_secure_enclave () Bool)
(assert (= source_private_keys_in_secure_enclave target_private_keys_in_secure_enclave))

; e2e_channel_provides_security: translation preserves property (matches Coq: Theorem)
(declare-fun source_e2e_channel_provides_security () Bool)
(declare-fun target_e2e_channel_provides_security () Bool)
(assert (= source_e2e_channel_provides_security target_e2e_channel_provides_security))

; forward_secrecy_maintained: translation preserves property (matches Coq: Theorem)
(declare-fun source_forward_secrecy_maintained () Bool)
(declare-fun target_forward_secrecy_maintained () Bool)
(assert (= source_forward_secrecy_maintained target_forward_secrecy_maintained))

; strong_encryption_minimum_bits: translation preserves property (matches Coq: Theorem)
(declare-fun source_strong_encryption_minimum_bits () Bool)
(declare-fun target_strong_encryption_minimum_bits () Bool)
(assert (= source_strong_encryption_minimum_bits target_strong_encryption_minimum_bits))

; decryption_verifies_integrity: translation preserves property (matches Coq: Theorem)
(declare-fun source_decryption_verifies_integrity () Bool)
(declare-fun target_decryption_verifies_integrity () Bool)
(assert (= source_decryption_verifies_integrity target_decryption_verifies_integrity))

; key_derivation_preserves_strength: translation preserves property (matches Coq: Theorem)
(declare-fun source_key_derivation_preserves_strength () Bool)
(declare-fun target_key_derivation_preserves_strength () Bool)
(assert (= source_key_derivation_preserves_strength target_key_derivation_preserves_strength))

; encryption_decryption_inverse: translation preserves property (matches Coq: Theorem)
(declare-fun source_encryption_decryption_inverse () Bool)
(declare-fun target_encryption_decryption_inverse () Bool)
(assert (= source_encryption_decryption_inverse target_encryption_decryption_inverse))

; key_generation_random: translation preserves property (matches Coq: Theorem)
(declare-fun source_key_generation_random () Bool)
(declare-fun target_key_generation_random () Bool)
(assert (= source_key_generation_random target_key_generation_random))

; key_length_sufficient: translation preserves property (matches Coq: Theorem)
(declare-fun source_key_length_sufficient () Bool)
(declare-fun target_key_length_sufficient () Bool)
(assert (= source_key_length_sufficient target_key_length_sufficient))

; iv_never_reused_thm: translation preserves property (matches Coq: Theorem)
(declare-fun source_iv_never_reused_thm () Bool)
(declare-fun target_iv_never_reused_thm () Bool)
(assert (= source_iv_never_reused_thm target_iv_never_reused_thm))

; aead_authentication_verified: translation preserves property (matches Coq: Theorem)
(declare-fun source_aead_authentication_verified () Bool)
(declare-fun target_aead_authentication_verified () Bool)
(assert (= source_aead_authentication_verified target_aead_authentication_verified))

; key_derivation_deterministic: translation preserves property (matches Coq: Theorem)
(declare-fun source_key_derivation_deterministic () Bool)
(declare-fun target_key_derivation_deterministic () Bool)
(assert (= source_key_derivation_deterministic target_key_derivation_deterministic))

; password_hash_one_way_thm: translation preserves property (matches Coq: Theorem)
(declare-fun source_password_hash_one_way_thm () Bool)
(declare-fun target_password_hash_one_way_thm () Bool)
(assert (= source_password_hash_one_way_thm target_password_hash_one_way_thm))

; salt_unique_per_password: translation preserves property (matches Coq: Theorem)
(declare-fun source_salt_unique_per_password () Bool)
(declare-fun target_salt_unique_per_password () Bool)
(assert (= source_salt_unique_per_password target_salt_unique_per_password))

; key_rotation_seamless_thm: translation preserves property (matches Coq: Theorem)
(declare-fun source_key_rotation_seamless_thm () Bool)
(declare-fun target_key_rotation_seamless_thm () Bool)
(assert (= source_key_rotation_seamless_thm target_key_rotation_seamless_thm))

; encrypted_data_indistinguishable_thm: translation preserves property (matches Coq: Theorem)
(declare-fun source_encrypted_data_indistinguishable_thm () Bool)
(declare-fun target_encrypted_data_indistinguishable_thm () Bool)
(assert (= source_encrypted_data_indistinguishable_thm target_encrypted_data_indistinguishable_thm))

; padding_oracle_prevented_thm: translation preserves property (matches Coq: Theorem)
(declare-fun source_padding_oracle_prevented_thm () Bool)
(declare-fun target_padding_oracle_prevented_thm () Bool)
(assert (= source_padding_oracle_prevented_thm target_padding_oracle_prevented_thm))

; timing_attack_prevented_thm: translation preserves property (matches Coq: Theorem)
(declare-fun source_timing_attack_prevented_thm () Bool)
(declare-fun target_timing_attack_prevented_thm () Bool)
(assert (= source_timing_attack_prevented_thm target_timing_attack_prevented_thm))

; key_zeroization_complete_thm: translation preserves property (matches Coq: Theorem)
(declare-fun source_key_zeroization_complete_thm () Bool)
(declare-fun target_key_zeroization_complete_thm () Bool)
(assert (= source_key_zeroization_complete_thm target_key_zeroization_complete_thm))

; hardware_key_storage: translation preserves property (matches Coq: Theorem)
(declare-fun source_hardware_key_storage () Bool)
(declare-fun target_hardware_key_storage () Bool)
(assert (= source_hardware_key_storage target_hardware_key_storage))

; encryption_algorithm_approved_thm: translation preserves property (matches Coq: Theorem)
(declare-fun source_encryption_algorithm_approved_thm () Bool)
(declare-fun target_encryption_algorithm_approved_thm () Bool)
(assert (= source_encryption_algorithm_approved_thm target_encryption_algorithm_approved_thm))

; Verify all translation validations are satisfiable
(check-sat)
(exit)
